; benchmark generated from python API
(set-info :status unknown)
(declare-fun syscall_stub_newfstatat_83_64 () (_ BitVec 64))
(declare-fun mem_c0000f45_79_992 () (_ BitVec 992))
(declare-fun mem_8000000000000000_195_128 () (_ BitVec 128))
(declare-fun mem_c0001010_98_32 () (_ BitVec 32))
(declare-fun mem_7fffffffffffffff_104_8 () (_ BitVec 8))
(assert
 (let ((?x47 ((_ extract 31 0) syscall_stub_newfstatat_83_64)))
 (let (($x52 (bvule ?x47 (_ bv4294963200 32))))
 (not $x52))))
(assert
 (let ((?x2189 ((_ extract 900 900) mem_c0000f45_79_992)))
 (= (_ bv0 1) ?x2189)))
(assert
 (let ((?x3699 ((_ extract 891 891) mem_c0000f45_79_992)))
 (= (_ bv0 1) ?x3699)))
(assert
 (let ((?x2374 ((_ extract 839 832) mem_c0000f45_79_992)))
 (= (_ bv255 8) ?x2374)))
(assert
 (let ((?x2364 ((_ extract 831 824) mem_c0000f45_79_992)))
 (= (_ bv255 8) ?x2364)))
(assert
 (let ((?x2349 ((_ extract 823 816) mem_c0000f45_79_992)))
 (= (_ bv255 8) ?x2349)))
(assert
 (let ((?x2357 ((_ extract 815 808) mem_c0000f45_79_992)))
 (= (_ bv255 8) ?x2357)))
(assert
 (let ((?x2362 ((_ extract 807 800) mem_c0000f45_79_992)))
 (= (_ bv255 8) ?x2362)))
(assert
 (let ((?x2363 ((_ extract 799 792) mem_c0000f45_79_992)))
 (= (_ bv255 8) ?x2363)))
(assert
 (let ((?x2346 ((_ extract 791 784) mem_c0000f45_79_992)))
 (= (_ bv255 8) ?x2346)))
(assert
 (let ((?x2345 ((_ extract 783 776) mem_c0000f45_79_992)))
 (= (_ bv127 8) ?x2345)))
(assert
 (let ((?x2427 ((_ extract 775 768) mem_c0000f45_79_992)))
 (let ((?x2419 ((_ extract 767 760) mem_c0000f45_79_992)))
 (let ((?x2429 ((_ extract 759 752) mem_c0000f45_79_992)))
 (let ((?x2417 ((_ extract 751 744) mem_c0000f45_79_992)))
 (let ((?x2410 ((_ extract 743 736) mem_c0000f45_79_992)))
 (let ((?x2411 ((_ extract 735 728) mem_c0000f45_79_992)))
 (let ((?x4124 (concat (concat ((_ extract 719 712) mem_c0000f45_79_992) ((_ extract 727 720) mem_c0000f45_79_992)) ?x2411)))
 (let ((?x4642 (concat ?x4124 ?x2410)))
 (let ((?x3823 (concat (concat (concat (concat ?x4642 ?x2417) ?x2429) ?x2419) ?x2427)))
 (let ((?x15099 (bvadd (_ bv9223372036854775808 64) ?x3823)))
 (let ((?x15111 ((_ extract 63 63) ?x15099)))
 (let (($x15093 (= (_ bv1 1) ?x15111)))
 (not $x15093))))))))))))))
(assert
 (let ((?x80354 ((_ extract 127 120) mem_8000000000000000_195_128)))
 (let (($x78207 (= (_ bv10 8) ?x80354)))
 (let ((?x196747 (ite $x78207 (_ bv15 32) (_ bv64 32))))
 (let ((?x80326 ((_ extract 119 112) mem_8000000000000000_195_128)))
 (let (($x79637 (= (_ bv10 8) ?x80326)))
 (let ((?x195501 (ite $x79637 (_ bv14 32) ?x196747)))
 (let ((?x78065 ((_ extract 111 104) mem_8000000000000000_195_128)))
 (let (($x78176 (= (_ bv10 8) ?x78065)))
 (let ((?x196558 (ite $x78176 (_ bv13 32) ?x195501)))
 (let ((?x78032 ((_ extract 103 96) mem_8000000000000000_195_128)))
 (let (($x78096 (= (_ bv10 8) ?x78032)))
 (let ((?x196664 (ite $x78096 (_ bv12 32) ?x196558)))
 (let ((?x84678 ((_ extract 95 88) mem_8000000000000000_195_128)))
 (let (($x73867 (= (_ bv10 8) ?x84678)))
 (let ((?x194572 (ite $x73867 (_ bv11 32) ?x196664)))
 (let ((?x74206 ((_ extract 87 80) mem_8000000000000000_195_128)))
 (let (($x78076 (= (_ bv10 8) ?x74206)))
 (let ((?x196984 (ite $x78076 (_ bv10 32) ?x194572)))
 (let ((?x80294 ((_ extract 79 72) mem_8000000000000000_195_128)))
 (let (($x80385 (= (_ bv10 8) ?x80294)))
 (let ((?x196017 (ite $x80385 (_ bv9 32) ?x196984)))
 (let ((?x81079 ((_ extract 71 64) mem_8000000000000000_195_128)))
 (let (($x80355 (= (_ bv10 8) ?x81079)))
 (let ((?x3835 (ite $x80355 (_ bv8 32) ?x196017)))
 (let ((?x80249 ((_ extract 63 56) mem_8000000000000000_195_128)))
 (let (($x80374 (= (_ bv10 8) ?x80249)))
 (let ((?x196244 (ite $x80374 (_ bv7 32) ?x3835)))
 (let ((?x80240 ((_ extract 55 48) mem_8000000000000000_195_128)))
 (let (($x80352 (= (_ bv10 8) ?x80240)))
 (let ((?x194345 (ite $x80352 (_ bv6 32) ?x196244)))
 (let ((?x80329 ((_ extract 47 40) mem_8000000000000000_195_128)))
 (let (($x81743 (= (_ bv10 8) ?x80329)))
 (let ((?x196979 (ite $x81743 (_ bv5 32) ?x194345)))
 (let ((?x81734 ((_ extract 39 32) mem_8000000000000000_195_128)))
 (let (($x81729 (= (_ bv10 8) ?x81734)))
 (let ((?x197534 (ite $x81729 (_ bv4 32) ?x196979)))
 (let ((?x81720 ((_ extract 31 24) mem_8000000000000000_195_128)))
 (let (($x81716 (= (_ bv10 8) ?x81720)))
 (let ((?x196631 (ite $x81716 (_ bv3 32) ?x197534)))
 (let ((?x81707 ((_ extract 23 16) mem_8000000000000000_195_128)))
 (let (($x81702 (= (_ bv10 8) ?x81707)))
 (let ((?x196371 (ite $x81702 (_ bv2 32) ?x196631)))
 (let ((?x81676 ((_ extract 15 8) mem_8000000000000000_195_128)))
 (let (($x81692 (= (_ bv10 8) ?x81676)))
 (let ((?x197048 (ite $x81692 (_ bv1 32) ?x196371)))
 (let ((?x81645 ((_ extract 7 0) mem_8000000000000000_195_128)))
 (let (($x80216 (= (_ bv10 8) ?x81645)))
 (let ((?x195520 (ite $x80216 (_ bv0 32) ?x197048)))
 (let ((?x80258 (ite $x80216 (_ bv1 1) (_ bv0 1))))
 (let ((?x80307 (ite $x81692 (_ bv1 1) (_ bv0 1))))
 (let ((?x80306 (ite $x81702 (_ bv1 1) (_ bv0 1))))
 (let ((?x80399 (ite $x81716 (_ bv1 1) (_ bv0 1))))
 (let ((?x80375 (ite $x81729 (_ bv1 1) (_ bv0 1))))
 (let ((?x81703 (ite $x81743 (_ bv1 1) (_ bv0 1))))
 (let ((?x81718 (ite $x80352 (_ bv1 1) (_ bv0 1))))
 (let ((?x80370 (ite $x80374 (_ bv1 1) (_ bv0 1))))
 (let ((?x80380 (ite $x80355 (_ bv1 1) (_ bv0 1))))
 (let ((?x80345 (ite $x80385 (_ bv1 1) (_ bv0 1))))
 (let ((?x80321 (ite $x78076 (_ bv1 1) (_ bv0 1))))
 (let ((?x80381 (ite $x73867 (_ bv1 1) (_ bv0 1))))
 (let ((?x81712 (ite $x78096 (_ bv1 1) (_ bv0 1))))
 (let ((?x80265 (ite $x78176 (_ bv1 1) (_ bv0 1))))
 (let ((?x118596 (concat (concat (concat (_ bv0 16) (ite $x78207 (_ bv1 1) (_ bv0 1))) (ite $x79637 (_ bv1 1) (_ bv0 1))) ?x80265)))
 (let ((?x118601 (concat (concat (concat (concat (concat ?x118596 ?x81712) ?x80381) ?x80321) ?x80345) ?x80380)))
 (let ((?x118587 (concat (concat (concat (concat (concat ?x118601 ?x80370) ?x81718) ?x81703) ?x80375) ?x80399)))
 (let ((?x118584 (concat (concat (concat ?x118587 ?x80306) ?x80307) ?x80258)))
 (let (($x196420 (not $x78207)))
 (let (($x196760 (not $x79637)))
 (let (($x194882 (not $x78176)))
 (let (($x195263 (not $x78096)))
 (let (($x196013 (not $x73867)))
 (let (($x196349 (not $x78076)))
 (let (($x193807 (not $x80385)))
 (let (($x197356 (not $x80355)))
 (let (($x195132 (not $x80374)))
 (let (($x197426 (not $x80352)))
 (let (($x196535 (not $x81743)))
 (let (($x196280 (not $x81729)))
 (let (($x196971 (not $x81716)))
 (let (($x196358 (not $x81702)))
 (let (($x196076 (not $x81692)))
 (let (($x195952 (not $x80216)))
 (let (($x837 (and $x195952 $x196076 $x196358 $x196971 $x196280 $x196535 $x197426 $x195132 $x197356 $x193807 $x196349 $x196013 $x195263 $x194882 $x196760 $x196420)))
 (let ((?x197038 (ite $x837 ?x118584 ?x195520)))
 (let ((?x196384 (concat (_ bv0 32) ?x197038)))
 (let ((?x383136 (bvadd (_ bv1 64) ?x196384)))
 (let ((?x1588034 ((_ extract 63 5) ?x383136)))
 (= (_ bv0 59) ?x1588034)))))))))))))))))))))))))))))))))))))))))))))))))))))))))))))))))))))))))))))))))))))))))
(assert
 (let ((?x80354 ((_ extract 127 120) mem_8000000000000000_195_128)))
 (let (($x78207 (= (_ bv10 8) ?x80354)))
 (let ((?x1585536 (ite $x78207 (_ bv15 5) (_ bv0 5))))
 (let ((?x80326 ((_ extract 119 112) mem_8000000000000000_195_128)))
 (let (($x79637 (= (_ bv10 8) ?x80326)))
 (let ((?x1587812 (ite $x79637 (_ bv14 5) ?x1585536)))
 (let ((?x78065 ((_ extract 111 104) mem_8000000000000000_195_128)))
 (let (($x78176 (= (_ bv10 8) ?x78065)))
 (let ((?x1587809 (ite $x78176 (_ bv13 5) ?x1587812)))
 (let ((?x78032 ((_ extract 103 96) mem_8000000000000000_195_128)))
 (let (($x78096 (= (_ bv10 8) ?x78032)))
 (let ((?x2460254 (ite $x78096 (_ bv12 5) ?x1587809)))
 (let ((?x84678 ((_ extract 95 88) mem_8000000000000000_195_128)))
 (let (($x73867 (= (_ bv10 8) ?x84678)))
 (let ((?x2460856 (ite $x73867 (_ bv11 5) ?x2460254)))
 (let ((?x74206 ((_ extract 87 80) mem_8000000000000000_195_128)))
 (let (($x78076 (= (_ bv10 8) ?x74206)))
 (let ((?x2461617 (ite $x78076 (_ bv10 5) ?x2460856)))
 (let ((?x80294 ((_ extract 79 72) mem_8000000000000000_195_128)))
 (let (($x80385 (= (_ bv10 8) ?x80294)))
 (let ((?x2461332 (ite $x80385 (_ bv9 5) ?x2461617)))
 (let ((?x81079 ((_ extract 71 64) mem_8000000000000000_195_128)))
 (let (($x80355 (= (_ bv10 8) ?x81079)))
 (let ((?x2459940 (ite $x80355 (_ bv8 5) ?x2461332)))
 (let ((?x80249 ((_ extract 63 56) mem_8000000000000000_195_128)))
 (let (($x80374 (= (_ bv10 8) ?x80249)))
 (let ((?x2461128 (ite $x80374 (_ bv7 5) ?x2459940)))
 (let ((?x80240 ((_ extract 55 48) mem_8000000000000000_195_128)))
 (let (($x80352 (= (_ bv10 8) ?x80240)))
 (let ((?x2460542 (ite $x80352 (_ bv6 5) ?x2461128)))
 (let ((?x80329 ((_ extract 47 40) mem_8000000000000000_195_128)))
 (let (($x81743 (= (_ bv10 8) ?x80329)))
 (let ((?x2460812 (ite $x81743 (_ bv5 5) ?x2460542)))
 (let ((?x81734 ((_ extract 39 32) mem_8000000000000000_195_128)))
 (let (($x81729 (= (_ bv10 8) ?x81734)))
 (let ((?x2466558 (ite $x81729 (_ bv4 5) ?x2460812)))
 (let ((?x81720 ((_ extract 31 24) mem_8000000000000000_195_128)))
 (let (($x81716 (= (_ bv10 8) ?x81720)))
 (let ((?x2457755 (ite $x81716 (_ bv3 5) ?x2466558)))
 (let ((?x81707 ((_ extract 23 16) mem_8000000000000000_195_128)))
 (let (($x81702 (= (_ bv10 8) ?x81707)))
 (let ((?x2456830 (ite $x81702 (_ bv2 5) ?x2457755)))
 (let ((?x81676 ((_ extract 15 8) mem_8000000000000000_195_128)))
 (let (($x81692 (= (_ bv10 8) ?x81676)))
 (let ((?x2461129 (ite $x81692 (_ bv1 5) ?x2456830)))
 (let ((?x81645 ((_ extract 7 0) mem_8000000000000000_195_128)))
 (let (($x80216 (= (_ bv10 8) ?x81645)))
 (let ((?x2461200 (ite $x80216 (_ bv0 5) ?x2461129)))
 (let ((?x80258 (ite $x80216 (_ bv1 1) (_ bv0 1))))
 (let ((?x80307 (ite $x81692 (_ bv1 1) (_ bv0 1))))
 (let ((?x80306 (ite $x81702 (_ bv1 1) (_ bv0 1))))
 (let ((?x698809 (concat (concat (concat (ite $x81729 (_ bv1 1) (_ bv0 1)) (ite $x81716 (_ bv1 1) (_ bv0 1))) ?x80306) ?x80307)))
 (let ((?x1587224 (concat ?x698809 ?x80258)))
 (let (($x196420 (not $x78207)))
 (let (($x196760 (not $x79637)))
 (let (($x194882 (not $x78176)))
 (let (($x195263 (not $x78096)))
 (let (($x196013 (not $x73867)))
 (let (($x196349 (not $x78076)))
 (let (($x193807 (not $x80385)))
 (let (($x197356 (not $x80355)))
 (let (($x195132 (not $x80374)))
 (let (($x197426 (not $x80352)))
 (let (($x196535 (not $x81743)))
 (let (($x196280 (not $x81729)))
 (let (($x196971 (not $x81716)))
 (let (($x196358 (not $x81702)))
 (let (($x196076 (not $x81692)))
 (let (($x195952 (not $x80216)))
 (let (($x837 (and $x195952 $x196076 $x196358 $x196971 $x196280 $x196535 $x197426 $x195132 $x197356 $x193807 $x196349 $x196013 $x195263 $x194882 $x196760 $x196420)))
 (let ((?x2460947 (ite $x837 ?x1587224 ?x2461200)))
 (let ((?x2460579 (bvadd (_ bv1 5) ?x2460947)))
 (bvule ?x2460579 (_ bv16 5)))))))))))))))))))))))))))))))))))))))))))))))))))))))))))))))))))))))))))
(assert
 (let ((?x80329 ((_ extract 47 40) mem_8000000000000000_195_128)))
 (let (($x81743 (= (_ bv10 8) ?x80329)))
 (let ((?x78065 ((_ extract 111 104) mem_8000000000000000_195_128)))
 (let (($x78176 (= (_ bv10 8) ?x78065)))
 (let ((?x80240 ((_ extract 55 48) mem_8000000000000000_195_128)))
 (let (($x80352 (= (_ bv10 8) ?x80240)))
 (let ((?x80249 ((_ extract 63 56) mem_8000000000000000_195_128)))
 (let (($x80374 (= (_ bv10 8) ?x80249)))
 (let ((?x74206 ((_ extract 87 80) mem_8000000000000000_195_128)))
 (let (($x78076 (= (_ bv10 8) ?x74206)))
 (let ((?x81645 ((_ extract 7 0) mem_8000000000000000_195_128)))
 (let (($x80216 (= (_ bv10 8) ?x81645)))
 (let ((?x81734 ((_ extract 39 32) mem_8000000000000000_195_128)))
 (let (($x81729 (= (_ bv10 8) ?x81734)))
 (let ((?x81720 ((_ extract 31 24) mem_8000000000000000_195_128)))
 (let (($x81716 (= (_ bv10 8) ?x81720)))
 (let ((?x81707 ((_ extract 23 16) mem_8000000000000000_195_128)))
 (let (($x81702 (= (_ bv10 8) ?x81707)))
 (let ((?x81676 ((_ extract 15 8) mem_8000000000000000_195_128)))
 (let (($x81692 (= (_ bv10 8) ?x81676)))
 (let ((?x81079 ((_ extract 71 64) mem_8000000000000000_195_128)))
 (let (($x80355 (= (_ bv10 8) ?x81079)))
 (let ((?x80294 ((_ extract 79 72) mem_8000000000000000_195_128)))
 (let (($x80385 (= (_ bv10 8) ?x80294)))
 (let ((?x84678 ((_ extract 95 88) mem_8000000000000000_195_128)))
 (let (($x73867 (= (_ bv10 8) ?x84678)))
 (let ((?x80326 ((_ extract 119 112) mem_8000000000000000_195_128)))
 (let (($x79637 (= (_ bv10 8) ?x80326)))
 (let ((?x80354 ((_ extract 127 120) mem_8000000000000000_195_128)))
 (let (($x78207 (= (_ bv10 8) ?x80354)))
 (let ((?x78032 ((_ extract 103 96) mem_8000000000000000_195_128)))
 (let (($x78096 (= (_ bv10 8) ?x78032)))
 (or $x78096 $x78207 $x79637 $x73867 $x80385 $x80355 $x81692 $x81702 $x81716 $x81729 $x80216 $x78076 $x80374 $x80352 $x78176 $x81743))))))))))))))))))))))))))))))))))
(assert
 (let ((?x2401 ((_ extract 727 720) mem_c0000f45_79_992)))
 (let (($x17731 (= (_ bv255 8) ?x2401)))
 (let (($x17664 (not $x17731)))
 (let ((?x2411 ((_ extract 735 728) mem_c0000f45_79_992)))
 (let (($x17604 (= (_ bv255 8) ?x2411)))
 (let (($x17721 (not $x17604)))
 (let ((?x2417 ((_ extract 751 744) mem_c0000f45_79_992)))
 (let (($x17650 (= (_ bv255 8) ?x2417)))
 (let (($x17555 (not $x17650)))
 (let ((?x2410 ((_ extract 743 736) mem_c0000f45_79_992)))
 (let (($x17595 (= (_ bv255 8) ?x2410)))
 (let (($x17616 (not $x17595)))
 (let ((?x2419 ((_ extract 767 760) mem_c0000f45_79_992)))
 (let (($x17574 (= (_ bv255 8) ?x2419)))
 (let (($x17598 (not $x17574)))
 (let ((?x2429 ((_ extract 759 752) mem_c0000f45_79_992)))
 (let (($x17591 (= (_ bv255 8) ?x2429)))
 (let (($x17582 (not $x17591)))
 (let ((?x2400 ((_ extract 719 712) mem_c0000f45_79_992)))
 (let (($x58603 (= (_ bv127 8) ?x2400)))
 (let (($x56089 (not $x58603)))
 (let ((?x2427 ((_ extract 775 768) mem_c0000f45_79_992)))
 (let (($x52309 (= (_ bv255 8) ?x2427)))
 (let (($x57065 (not $x52309)))
 (let (($x57808 (or $x57065 $x56089 $x17582 $x17598 $x17616 $x17555 $x17721 $x17664)))
 (let (($x58601 (not $x57808)))
 (let ((?x3809 (concat (concat (concat (concat (concat ?x2400 ?x2401) ?x2411) ?x2410) ?x2417) ?x2429)))
 (let ((?x3823 (concat (concat ?x3809 ?x2419) ?x2427)))
 (let ((?x58194 (bvadd (_ bv9223372036854775809 64) ?x3823)))
 (let ((?x58113 ((_ extract 63 63) ?x58194)))
 (let (($x58125 (= (_ bv1 1) ?x58113)))
 (or $x58125 $x58601)))))))))))))))))))))))))))))))))
(assert
 (let ((?x2427 ((_ extract 775 768) mem_c0000f45_79_992)))
 (let ((?x2419 ((_ extract 767 760) mem_c0000f45_79_992)))
 (let ((?x2429 ((_ extract 759 752) mem_c0000f45_79_992)))
 (let ((?x2417 ((_ extract 751 744) mem_c0000f45_79_992)))
 (let ((?x2410 ((_ extract 743 736) mem_c0000f45_79_992)))
 (let ((?x2411 ((_ extract 735 728) mem_c0000f45_79_992)))
 (let ((?x4124 (concat (concat ((_ extract 719 712) mem_c0000f45_79_992) ((_ extract 727 720) mem_c0000f45_79_992)) ?x2411)))
 (let ((?x4642 (concat ?x4124 ?x2410)))
 (let ((?x3823 (concat (concat (concat (concat ?x4642 ?x2417) ?x2429) ?x2419) ?x2427)))
 (let ((?x15099 (bvadd (_ bv9223372036854775808 64) ?x3823)))
 (let ((?x33956 ((_ extract 63 9) ?x15099)))
 (let (($x307286 (= (_ bv0 55) ?x33956)))
 (let (($x383643 (not $x307286)))
 (let ((?x3615 ((_ extract 824 824) mem_c0000f45_79_992)))
 (let ((?x81651 (concat ?x3615 (_ bv255 8))))
 (let ((?x81652 (bvmul (_ bv511 9) ?x81651)))
 (let ((?x4203 ((_ extract 760 760) mem_c0000f45_79_992)))
 (let ((?x3607 (concat ?x4203 ?x2427)))
 (let ((?x49860 (bvadd (_ bv511 9) ?x3607)))
 (let ((?x306791 (bvadd ?x49860 ?x81652)))
 (let (($x305412 (bvule ?x306791 (_ bv398 9))))
 (let (($x384687 (not $x305412)))
 (let ((?x380521 ((_ extract 63 32) ?x15099)))
 (let (($x381537 (= (_ bv0 32) ?x380521)))
 (let (($x2461905 (or $x381537 $x384687 $x383643)))
 (let (($x2458764 (not $x2461905)))
 (let ((?x80354 ((_ extract 127 120) mem_8000000000000000_195_128)))
 (let (($x78207 (= (_ bv10 8) ?x80354)))
 (let ((?x196747 (ite $x78207 (_ bv15 32) (_ bv64 32))))
 (let ((?x80326 ((_ extract 119 112) mem_8000000000000000_195_128)))
 (let (($x79637 (= (_ bv10 8) ?x80326)))
 (let ((?x195501 (ite $x79637 (_ bv14 32) ?x196747)))
 (let ((?x78065 ((_ extract 111 104) mem_8000000000000000_195_128)))
 (let (($x78176 (= (_ bv10 8) ?x78065)))
 (let ((?x196558 (ite $x78176 (_ bv13 32) ?x195501)))
 (let ((?x78032 ((_ extract 103 96) mem_8000000000000000_195_128)))
 (let (($x78096 (= (_ bv10 8) ?x78032)))
 (let ((?x196664 (ite $x78096 (_ bv12 32) ?x196558)))
 (let ((?x84678 ((_ extract 95 88) mem_8000000000000000_195_128)))
 (let (($x73867 (= (_ bv10 8) ?x84678)))
 (let ((?x194572 (ite $x73867 (_ bv11 32) ?x196664)))
 (let ((?x74206 ((_ extract 87 80) mem_8000000000000000_195_128)))
 (let (($x78076 (= (_ bv10 8) ?x74206)))
 (let ((?x196984 (ite $x78076 (_ bv10 32) ?x194572)))
 (let ((?x80294 ((_ extract 79 72) mem_8000000000000000_195_128)))
 (let (($x80385 (= (_ bv10 8) ?x80294)))
 (let ((?x196017 (ite $x80385 (_ bv9 32) ?x196984)))
 (let ((?x81079 ((_ extract 71 64) mem_8000000000000000_195_128)))
 (let (($x80355 (= (_ bv10 8) ?x81079)))
 (let ((?x3835 (ite $x80355 (_ bv8 32) ?x196017)))
 (let ((?x80249 ((_ extract 63 56) mem_8000000000000000_195_128)))
 (let (($x80374 (= (_ bv10 8) ?x80249)))
 (let ((?x196244 (ite $x80374 (_ bv7 32) ?x3835)))
 (let ((?x80240 ((_ extract 55 48) mem_8000000000000000_195_128)))
 (let (($x80352 (= (_ bv10 8) ?x80240)))
 (let ((?x194345 (ite $x80352 (_ bv6 32) ?x196244)))
 (let ((?x80329 ((_ extract 47 40) mem_8000000000000000_195_128)))
 (let (($x81743 (= (_ bv10 8) ?x80329)))
 (let ((?x196979 (ite $x81743 (_ bv5 32) ?x194345)))
 (let ((?x81734 ((_ extract 39 32) mem_8000000000000000_195_128)))
 (let (($x81729 (= (_ bv10 8) ?x81734)))
 (let ((?x197534 (ite $x81729 (_ bv4 32) ?x196979)))
 (let ((?x81720 ((_ extract 31 24) mem_8000000000000000_195_128)))
 (let (($x81716 (= (_ bv10 8) ?x81720)))
 (let ((?x196631 (ite $x81716 (_ bv3 32) ?x197534)))
 (let ((?x81707 ((_ extract 23 16) mem_8000000000000000_195_128)))
 (let (($x81702 (= (_ bv10 8) ?x81707)))
 (let ((?x196371 (ite $x81702 (_ bv2 32) ?x196631)))
 (let ((?x81676 ((_ extract 15 8) mem_8000000000000000_195_128)))
 (let (($x81692 (= (_ bv10 8) ?x81676)))
 (let ((?x197048 (ite $x81692 (_ bv1 32) ?x196371)))
 (let ((?x81645 ((_ extract 7 0) mem_8000000000000000_195_128)))
 (let (($x80216 (= (_ bv10 8) ?x81645)))
 (let ((?x195520 (ite $x80216 (_ bv0 32) ?x197048)))
 (let ((?x22501 (concat (concat (concat ?x2417 ?x2429) ?x2419) ?x2427)))
 (let (($x304823 (and $x307286 $x305412)))
 (let ((?x384518 (ite $x304823 ?x22501 (_ bv398 32))))
 (let (($x384221 (bvule ?x384518 ?x195520)))
 (let (($x385856 (not $x384221)))
 (or $x385856 $x2458764)))))))))))))))))))))))))))))))))))))))))))))))))))))))))))))))))))))))))))))))))
(assert
 (= (_ bv4294967295 32) mem_c0001010_98_32))
(assert
 (let (($x15106 (= (_ bv10 8) mem_7fffffffffffffff_104_8)))
 (not $x15106)))
(maximize mem_c0000f45_79_992)
(maximize mem_c0001010_98_32)
(maximize mem_7fffffffffffffff_104_8)
(minimize mem_c0001010_98_32)
(minimize syscall_stub_newfstatat_83_64)
(minimize mem_c0000f45_79_992)
(minimize mem_7fffffffffffffff_104_8)
(maximize mem_8000000000000000_195_128)
(maximize syscall_stub_newfstatat_83_64)
(minimize mem_8000000000000000_195_128)
(check-sat)
(get-objectives)
